solution status: optimal solution found
objective value:                                    1
shell_i_$_46                                        1 	(obj:0)
shell_j_$_62                                        1 	(obj:0)
shell_j_$_51                                        1 	(obj:0)
shell_i_$_45                                        1 	(obj:0)
shell_j_$_69                                        1 	(obj:0)
shell_i_$_52                                        1 	(obj:0)
shell_j_$_49                                        1 	(obj:0)
shell_i_$_56                                        1 	(obj:0)
shell_i_$_57                                        1 	(obj:0)
shell_i_$_97                                        1 	(obj:0)
shell_i_$_50                                        1 	(obj:0)
shell_j_$_151                                       1 	(obj:0)
shell_i_$_55                                        1 	(obj:0)
$_52_y                                             12 	(obj:0)
$_52_z                                             21 	(obj:0)
$_51_x                                              7 	(obj:0)
$_51_y                                             14 	(obj:0)
$_49_x                                             10 	(obj:0)
$_49_y                                             14 	(obj:0)
$_49_z                                             20 	(obj:0)
$_51_z                                             20 	(obj:0)
$_46_y                                              8 	(obj:0)
$_56_x                                             14 	(obj:0)
$_56_y                                              7 	(obj:0)
$_56_z                                             15 	(obj:0)
$_62_x                                              4 	(obj:0)
$_45_x                                             14 	(obj:0)
$_57_x                                             14 	(obj:0)
$_57_y                                              6 	(obj:0)
$_57_z                                             16 	(obj:0)
$_45_y                                             10 	(obj:0)
$_45_z                                             19 	(obj:0)
$_97_x                                             14 	(obj:0)
$_97_y                                              9 	(obj:0)
$_97_z                                             19 	(obj:0)
$_62_y                                             14 	(obj:0)
$_62_z                                             18 	(obj:0)
$_50_x                                             14 	(obj:0)
$_50_y                                              8 	(obj:0)
$_50_z                                             19 	(obj:0)
$_69_x                                              7 	(obj:0)
$_69_y                                             14 	(obj:0)
$_151_x                                             4 	(obj:0)
$_151_y                                            14 	(obj:0)
$_151_z                                            20 	(obj:0)
$_69_z                                             19 	(obj:0)
$_46_z                                             21 	(obj:0)
$_55_x                                             14 	(obj:0)
$_55_y                                              6 	(obj:0)
$_55_z                                             15 	(obj:0)
$_46_x                                             14 	(obj:0)
$_52_x                                             14 	(obj:0)
x95                                                 1 	(obj:1)
